************************************************************************
file with basedata            : mm11_.bas
initial value random generator: 305651900
************************************************************************
projects                      :  1
jobs (incl. supersource/sink ):  12
horizon                       :  78
RESOURCES
  - renewable                 :  2   R
  - nonrenewable              :  2   N
  - doubly constrained        :  0   D
************************************************************************
PROJECT INFORMATION:
pronr.  #jobs rel.date duedate tardcost  MPM-Time
    1     10      0       14        3       14
************************************************************************
PRECEDENCE RELATIONS:
jobnr.    #modes  #successors   successors
   0        1          3           1   2   3
   1        3          2           6   9
   2        3          2           4   5
   3        3          1           8
   4        3          3           7   8  10
   5        3          1           6
   6        3          2           8  10
   7        3          1           9
   8        3          1          11
   9        3          1          11
  10        3          1          11
  11        1          0        
************************************************************************
REQUESTS/DURATIONS:
jobnr. mode duration  R 1  R 2  R 3  R 4  E(W 1)  E(W 2)
------------------------------------------------------------------------
  0      1     0       0    0    0    0     0       0
  1      1     2       6    0    0    3    12       6
  2      1     1       0    4    0    9     4       9
  3      1     3       0    9    6    0    27      18
  4      1     4       9    0    4    0    36      16
  5      1     1       0    5    9    0     5       9
  6      1     3       5    0    6    0    15      18
  7      1     1       5    0    0    8     5       8
  8      1     3       6    0    5    0    18      15
  9      1     8       0    6    2    0    48      16
 10      1     3       0    9    0    4    27      12
 11      1     0       0    0    0    0     0       0
************************************************************************
RESOURCEAVAILABILITIES:
  R 1  R 2
   28   84
************************************************************************
RESOURCE LIMITS:
jobnr.  l(R 1)  u(R 1)  l(R 2)  u(R 2)
------------------------------------------------------------------------
  0        0       0       0       0
  1        3       6       2       3
  2        2       4       5       9
  3        5       9       3       6
  4        5       9       2       4
  5        3       5       5       9
  6        3       5       3       6
  7        3       5       4       8
  8        3       6       3       5
  9        3       6       1       2
 10        5       9       2       4
 11        0       0       0       0
************************************************************************
SCENARIOS:
------------------------------------------------------------------------
RESOURCE k = 1
s = 1: (0, 12, 5, 18, 38, 5, 26, 4, 21, 45, 27, 0)
s = 2: (0, 17, 4, 32, 39, 5, 18, 4, 13, 33, 40, 0)
s = 3: (0, 10, 6, 34, 21, 6, 10, 4, 15, 42, 24, 0)
s = 4: (0, 9, 4, 35, 33, 5, 21, 4, 16, 33, 30, 0)
s = 5: (0, 8, 5, 29, 35, 5, 9, 6, 34, 39, 29, 0)
s = 6: (0, 12, 6, 24, 24, 6, 17, 9, 20, 44, 19, 0)
s = 7: (0, 17, 7, 23, 42, 6, 16, 6, 15, 33, 29, 0)
s = 8: (0, 7, 3, 23, 27, 4, 11, 7, 14, 32, 23, 0)
s = 9: (0, 12, 3, 16, 31, 4, 15, 4, 13, 59, 31, 0)
s = 10: (0, 17, 4, 24, 41, 6, 20, 5, 13, 43, 37, 0)
s = 11: (0, 15, 3, 27, 35, 5, 22, 7, 17, 52, 25, 0)
s = 12: (0, 17, 7, 23, 61, 5, 13, 6, 13, 27, 43, 0)
s = 13: (0, 15, 4, 19, 44, 7, 11, 6, 17, 47, 43, 0)
s = 14: (0, 19, 6, 23, 32, 5, 13, 6, 22, 44, 19, 0)
s = 15: (0, 19, 4, 30, 32, 5, 19, 4, 24, 54, 27, 0)
s = 16: (0, 8, 4, 32, 60, 4, 17, 6, 21, 66, 19, 0)
s = 17: (0, 15, 4, 47, 30, 6, 12, 5, 11, 34, 31, 0)
s = 18: (0, 14, 4, 20, 30, 5, 17, 5, 15, 48, 29, 0)
s = 19: (0, 16, 4, 28, 35, 4, 9, 7, 15, 38, 15, 0)
s = 20: (0, 10, 5, 22, 51, 4, 16, 6, 24, 26, 27, 0)
s = 21: (0, 10, 3, 30, 54, 5, 17, 6, 16, 40, 29, 0)
s = 22: (0, 12, 3, 36, 40, 4, 20, 5, 27, 65, 28, 0)
s = 23: (0, 15, 6, 23, 27, 4, 12, 4, 18, 38, 18, 0)
s = 24: (0, 10, 7, 29, 26, 7, 17, 6, 23, 40, 27, 0)
s = 25: (0, 13, 4, 23, 28, 5, 16, 4, 21, 48, 22, 0)
s = 26: (0, 16, 5, 33, 31, 4, 12, 5, 14, 55, 17, 0)
s = 27: (0, 19, 5, 21, 39, 5, 11, 4, 31, 66, 39, 0)
s = 28: (0, 14, 3, 32, 40, 6, 26, 5, 19, 86, 24, 0)
s = 29: (0, 10, 4, 17, 23, 9, 24, 5, 29, 30, 15, 0)
s = 30: (0, 11, 6, 19, 36, 5, 12, 5, 24, 48, 21, 0)
s = 31: (0, 11, 6, 28, 33, 3, 15, 4, 20, 37, 25, 0)
s = 32: (0, 8, 5, 32, 27, 4, 11, 5, 14, 38, 22, 0)
s = 33: (0, 8, 3, 28, 33, 7, 11, 4, 16, 58, 20, 0)
s = 34: (0, 9, 5, 24, 41, 5, 18, 8, 26, 44, 39, 0)
s = 35: (0, 15, 4, 43, 39, 6, 15, 5, 14, 40, 18, 0)
s = 36: (0, 14, 6, 24, 36, 4, 21, 4, 25, 35, 40, 0)
s = 37: (0, 14, 5, 20, 32, 6, 14, 5, 28, 31, 21, 0)
s = 38: (0, 12, 4, 32, 22, 5, 12, 7, 21, 41, 17, 0)
s = 39: (0, 11, 3, 25, 29, 5, 12, 4, 17, 80, 25, 0)
s = 40: (0, 11, 4, 22, 49, 6, 20, 4, 22, 54, 35, 0)
s = 41: (0, 9, 3, 35, 31, 9, 24, 6, 23, 48, 22, 0)
s = 42: (0, 12, 5, 32, 21, 6, 12, 3, 18, 32, 17, 0)
s = 43: (0, 11, 6, 28, 27, 7, 16, 4, 24, 39, 17, 0)
s = 44: (0, 12, 5, 31, 28, 6, 11, 4, 15, 32, 26, 0)
s = 45: (0, 17, 4, 38, 27, 5, 17, 9, 20, 84, 26, 0)
s = 46: (0, 14, 6, 34, 21, 4, 16, 7, 20, 76, 18, 0)
s = 47: (0, 11, 3, 38, 37, 6, 21, 4, 19, 33, 34, 0)
s = 48: (0, 13, 7, 20, 31, 4, 8, 5, 24, 84, 17, 0)
s = 49: (0, 14, 5, 27, 28, 5, 13, 3, 13, 58, 35, 0)
s = 50: (0, 17, 3, 18, 34, 6, 12, 6, 22, 69, 24, 0)
s = 51: (0, 15, 5, 38, 44, 4, 13, 6, 22, 53, 23, 0)
s = 52: (0, 14, 5, 28, 27, 8, 23, 5, 18, 65, 19, 0)
s = 53: (0, 11, 4, 18, 26, 6, 11, 4, 19, 39, 28, 0)
s = 54: (0, 13, 3, 17, 27, 4, 9, 4, 11, 37, 22, 0)
s = 55: (0, 17, 5, 31, 22, 5, 15, 5, 13, 72, 15, 0)
s = 56: (0, 8, 3, 21, 56, 7, 16, 4, 20, 30, 28, 0)
s = 57: (0, 10, 5, 20, 35, 7, 15, 4, 16, 65, 29, 0)
s = 58: (0, 11, 3, 33, 21, 5, 18, 7, 19, 54, 27, 0)
s = 59: (0, 13, 6, 16, 32, 8, 23, 5, 17, 38, 38, 0)
s = 60: (0, 10, 3, 14, 34, 6, 16, 5, 17, 42, 30, 0)
s = 61: (0, 13, 3, 25, 37, 4, 19, 4, 12, 42, 39, 0)
s = 62: (0, 7, 3, 24, 41, 6, 11, 7, 12, 66, 27, 0)
s = 63: (0, 8, 5, 21, 44, 4, 23, 4, 18, 60, 17, 0)
s = 64: (0, 15, 3, 17, 27, 5, 10, 7, 15, 38, 23, 0)
s = 65: (0, 16, 4, 29, 23, 5, 11, 5, 12, 60, 28, 0)
s = 66: (0, 17, 3, 22, 22, 4, 12, 5, 18, 45, 25, 0)
s = 67: (0, 7, 3, 20, 32, 5, 21, 4, 24, 30, 21, 0)
s = 68: (0, 10, 4, 34, 21, 8, 14, 5, 15, 42, 33, 0)
s = 69: (0, 20, 4, 35, 32, 7, 15, 5, 31, 50, 30, 0)
s = 70: (0, 10, 3, 16, 48, 6, 15, 8, 18, 46, 28, 0)
s = 71: (0, 15, 5, 20, 26, 6, 12, 4, 12, 46, 16, 0)
s = 72: (0, 13, 4, 32, 26, 6, 19, 5, 16, 74, 34, 0)
s = 73: (0, 17, 5, 33, 25, 8, 15, 5, 22, 67, 19, 0)
s = 74: (0, 16, 5, 16, 37, 5, 18, 5, 23, 48, 40, 0)
s = 75: (0, 23, 8, 26, 31, 9, 15, 6, 20, 41, 38, 0)
s = 76: (0, 13, 5, 35, 32, 8, 15, 5, 20, 31, 22, 0)
s = 77: (0, 16, 3, 43, 44, 4, 15, 4, 19, 49, 38, 0)
s = 78: (0, 15, 4, 36, 29, 6, 13, 4, 19, 32, 45, 0)
s = 79: (0, 10, 6, 15, 51, 5, 16, 8, 15, 40, 24, 0)
s = 80: (0, 8, 5, 28, 24, 4, 16, 4, 13, 52, 21, 0)
s = 81: (0, 13, 7, 28, 39, 6, 19, 7, 14, 63, 22, 0)
s = 82: (0, 11, 5, 18, 61, 6, 16, 5, 16, 28, 18, 0)
s = 83: (0, 21, 7, 31, 36, 4, 12, 5, 22, 47, 40, 0)
s = 84: (0, 8, 7, 21, 24, 5, 16, 4, 18, 60, 30, 0)
s = 85: (0, 8, 3, 40, 20, 4, 16, 5, 19, 37, 29, 0)
s = 86: (0, 18, 3, 34, 45, 5, 14, 4, 11, 51, 34, 0)
s = 87: (0, 10, 4, 32, 42, 6, 22, 6, 16, 51, 25, 0)
s = 88: (0, 19, 4, 32, 30, 6, 16, 4, 16, 46, 23, 0)
s = 89: (0, 17, 4, 33, 32, 5, 18, 6, 11, 64, 16, 0)
s = 90: (0, 7, 5, 38, 57, 5, 20, 5, 16, 66, 21, 0)
s = 91: (0, 9, 6, 26, 29, 5, 12, 6, 11, 57, 27, 0)
s = 92: (0, 15, 5, 34, 31, 4, 19, 6, 19, 62, 33, 0)
s = 93: (0, 8, 5, 36, 40, 4, 22, 6, 27, 30, 27, 0)
s = 94: (0, 10, 3, 34, 30, 4, 12, 6, 17, 56, 37, 0)
s = 95: (0, 12, 5, 17, 35, 8, 10, 5, 14, 42, 16, 0)
s = 96: (0, 12, 6, 28, 48, 5, 13, 7, 12, 36, 22, 0)
s = 97: (0, 10, 6, 26, 32, 5, 18, 5, 14, 55, 19, 0)
s = 98: (0, 10, 5, 29, 25, 5, 11, 3, 17, 67, 24, 0)
s = 99: (0, 9, 5, 31, 37, 7, 13, 3, 24, 35, 16, 0)
s = 100: (0, 15, 4, 25, 27, 5, 10, 6, 13, 63, 38, 0)
s = 101: (0, 10, 5, 24, 27, 8, 14, 8, 15, 56, 23, 0)
s = 102: (0, 11, 3, 22, 35, 5, 19, 4, 20, 71, 27, 0)
s = 103: (0, 13, 5, 20, 35, 5, 16, 6, 12, 51, 31, 0)
s = 104: (0, 11, 3, 25, 26, 9, 23, 5, 24, 39, 16, 0)
s = 105: (0, 12, 5, 31, 49, 6, 12, 3, 27, 33, 27, 0)
s = 106: (0, 8, 5, 44, 39, 5, 24, 7, 26, 42, 19, 0)
s = 107: (0, 10, 4, 33, 45, 5, 25, 5, 19, 50, 22, 0)
s = 108: (0, 14, 4, 22, 68, 4, 17, 4, 23, 61, 20, 0)
s = 109: (0, 8, 4, 26, 26, 5, 16, 4, 17, 58, 43, 0)
s = 110: (0, 8, 4, 37, 36, 7, 15, 4, 21, 54, 28, 0)
s = 111: (0, 13, 6, 18, 27, 6, 19, 5, 18, 56, 30, 0)
s = 112: (0, 9, 4, 40, 43, 4, 14, 4, 20, 55, 18, 0)
s = 113: (0, 8, 5, 28, 31, 6, 21, 7, 25, 38, 33, 0)
s = 114: (0, 12, 5, 26, 44, 5, 21, 6, 18, 52, 41, 0)
s = 115: (0, 18, 5, 23, 28, 6, 21, 6, 24, 55, 33, 0)
s = 116: (0, 14, 4, 25, 57, 8, 9, 5, 19, 29, 23, 0)
s = 117: (0, 17, 3, 35, 39, 4, 17, 6, 19, 52, 29, 0)
s = 118: (0, 10, 4, 29, 34, 5, 16, 4, 24, 37, 25, 0)
s = 119: (0, 8, 4, 29, 24, 3, 13, 5, 11, 42, 37, 0)
s = 120: (0, 11, 5, 26, 42, 8, 13, 6, 16, 51, 36, 0)
s = 121: (0, 15, 4, 33, 45, 8, 16, 5, 10, 55, 20, 0)
s = 122: (0, 22, 5, 23, 24, 5, 15, 6, 25, 40, 31, 0)
s = 123: (0, 8, 4, 28, 64, 7, 17, 8, 21, 52, 31, 0)
s = 124: (0, 12, 3, 43, 43, 5, 12, 5, 23, 40, 31, 0)
s = 125: (0, 15, 4, 30, 42, 7, 10, 5, 18, 36, 16, 0)
s = 126: (0, 12, 5, 36, 37, 6, 10, 5, 21, 41, 23, 0)
s = 127: (0, 12, 5, 32, 29, 5, 19, 5, 15, 79, 32, 0)
s = 128: (0, 10, 3, 30, 38, 6, 18, 6, 22, 49, 45, 0)
s = 129: (0, 15, 5, 34, 38, 4, 20, 6, 13, 36, 23, 0)
s = 130: (0, 17, 5, 23, 30, 4, 16, 4, 14, 69, 24, 0)
s = 131: (0, 7, 4, 29, 39, 4, 14, 5, 26, 36, 28, 0)
s = 132: (0, 10, 5, 24, 25, 4, 10, 4, 20, 52, 27, 0)
s = 133: (0, 12, 4, 30, 50, 8, 21, 5, 15, 74, 32, 0)
s = 134: (0, 11, 6, 32, 28, 6, 14, 4, 19, 43, 20, 0)
s = 135: (0, 15, 3, 26, 47, 5, 11, 5, 14, 39, 19, 0)
s = 136: (0, 15, 5, 17, 42, 4, 12, 3, 23, 33, 27, 0)
s = 137: (0, 11, 3, 34, 47, 4, 19, 5, 19, 33, 35, 0)
s = 138: (0, 15, 3, 32, 25, 6, 20, 3, 10, 32, 36, 0)
s = 139: (0, 20, 5, 21, 27, 4, 11, 9, 18, 31, 18, 0)
s = 140: (0, 10, 8, 34, 40, 5, 17, 5, 15, 64, 22, 0)
s = 141: (0, 13, 5, 32, 23, 4, 21, 7, 20, 45, 33, 0)
s = 142: (0, 15, 4, 19, 33, 5, 15, 4, 23, 62, 33, 0)
s = 143: (0, 12, 5, 23, 21, 5, 29, 6, 21, 41, 15, 0)
s = 144: (0, 11, 5, 37, 36, 5, 20, 4, 16, 37, 30, 0)
s = 145: (0, 14, 4, 27, 44, 7, 17, 6, 15, 61, 25, 0)
s = 146: (0, 22, 5, 31, 49, 5, 16, 4, 21, 46, 28, 0)
s = 147: (0, 11, 3, 33, 38, 4, 12, 5, 20, 45, 18, 0)
s = 148: (0, 10, 5, 42, 36, 4, 18, 4, 33, 59, 31, 0)
s = 149: (0, 17, 7, 39, 35, 8, 12, 6, 19, 65, 24, 0)
s = 150: (0, 13, 4, 23, 43, 4, 14, 6, 17, 61, 21, 0)
s = 151: (0, 14, 4, 32, 42, 3, 11, 5, 15, 34, 38, 0)
s = 152: (0, 8, 4, 24, 34, 7, 19, 4, 14, 51, 16, 0)
s = 153: (0, 16, 5, 24, 27, 4, 17, 6, 15, 35, 37, 0)
s = 154: (0, 9, 5, 30, 49, 5, 16, 8, 24, 77, 36, 0)
s = 155: (0, 9, 3, 31, 36, 5, 16, 5, 26, 43, 25, 0)
s = 156: (0, 14, 4, 27, 22, 7, 14, 4, 15, 43, 26, 0)
s = 157: (0, 8, 4, 29, 29, 8, 18, 6, 18, 64, 40, 0)
s = 158: (0, 17, 3, 29, 34, 4, 10, 5, 26, 40, 18, 0)
s = 159: (0, 10, 5, 28, 24, 4, 14, 6, 11, 70, 24, 0)
s = 160: (0, 10, 4, 29, 31, 6, 11, 5, 24, 32, 33, 0)
s = 161: (0, 13, 4, 31, 33, 3, 13, 7, 29, 47, 28, 0)
s = 162: (0, 10, 3, 25, 24, 8, 11, 6, 19, 36, 18, 0)
s = 163: (0, 14, 7, 21, 53, 4, 17, 5, 15, 51, 30, 0)
s = 164: (0, 16, 4, 28, 32, 4, 15, 4, 16, 47, 19, 0)
s = 165: (0, 11, 8, 26, 25, 7, 12, 7, 21, 45, 22, 0)
s = 166: (0, 13, 3, 24, 34, 5, 15, 5, 32, 29, 29, 0)
s = 167: (0, 12, 8, 22, 46, 5, 21, 4, 16, 60, 32, 0)
s = 168: (0, 15, 4, 25, 27, 5, 13, 7, 20, 30, 46, 0)
s = 169: (0, 9, 5, 29, 33, 5, 21, 7, 21, 37, 25, 0)
s = 170: (0, 16, 4, 25, 34, 6, 13, 4, 32, 45, 34, 0)
s = 171: (0, 15, 4, 18, 23, 9, 15, 5, 14, 36, 26, 0)
s = 172: (0, 11, 6, 17, 27, 5, 15, 5, 15, 58, 29, 0)
s = 173: (0, 17, 6, 34, 37, 8, 14, 7, 28, 58, 43, 0)
s = 174: (0, 9, 6, 27, 31, 6, 16, 4, 14, 27, 16, 0)
s = 175: (0, 10, 5, 15, 34, 6, 17, 5, 16, 35, 16, 0)
s = 176: (0, 12, 5, 26, 27, 9, 19, 5, 17, 55, 25, 0)
s = 177: (0, 8, 6, 19, 43, 6, 16, 5, 13, 32, 28, 0)
s = 178: (0, 10, 6, 21, 51, 5, 14, 5, 12, 32, 21, 0)
s = 179: (0, 15, 5, 31, 32, 6, 12, 6, 20, 28, 20, 0)
s = 180: (0, 10, 6, 27, 64, 7, 21, 5, 13, 45, 16, 0)
s = 181: (0, 16, 6, 30, 35, 4, 16, 5, 20, 30, 33, 0)
s = 182: (0, 17, 4, 23, 43, 4, 18, 7, 19, 39, 33, 0)
s = 183: (0, 11, 3, 28, 27, 6, 13, 4, 26, 72, 27, 0)
s = 184: (0, 17, 6, 36, 59, 8, 21, 6, 18, 54, 15, 0)
s = 185: (0, 10, 3, 17, 40, 5, 24, 4, 10, 41, 23, 0)
s = 186: (0, 10, 6, 20, 21, 8, 19, 5, 15, 61, 26, 0)
s = 187: (0, 11, 5, 25, 49, 6, 18, 5, 32, 53, 23, 0)
s = 188: (0, 12, 5, 19, 35, 4, 24, 7, 15, 39, 38, 0)
s = 189: (0, 11, 4, 23, 34, 6, 22, 4, 17, 38, 28, 0)
s = 190: (0, 9, 5, 19, 51, 6, 14, 4, 23, 43, 25, 0)
s = 191: (0, 11, 5, 29, 21, 6, 16, 10, 21, 49, 31, 0)
s = 192: (0, 11, 3, 22, 26, 5, 20, 6, 19, 26, 22, 0)
s = 193: (0, 12, 5, 23, 57, 9, 16, 5, 24, 56, 16, 0)
s = 194: (0, 7, 4, 31, 24, 4, 11, 6, 15, 79, 30, 0)
s = 195: (0, 10, 4, 20, 22, 6, 19, 6, 15, 51, 32, 0)
s = 196: (0, 20, 5, 20, 37, 5, 11, 5, 14, 32, 25, 0)
s = 197: (0, 16, 5, 22, 54, 4, 13, 5, 26, 50, 23, 0)
s = 198: (0, 18, 4, 24, 42, 5, 18, 7, 14, 63, 34, 0)
s = 199: (0, 8, 6, 35, 54, 5, 14, 6, 27, 53, 32, 0)
s = 200: (0, 9, 3, 31, 49, 6, 20, 5, 16, 62, 22, 0)
------------------------------------------------------------------------
RESOURCE k = 2
s = 1: (0, 6, 10, 12, 17, 8, 31, 6, 18, 15, 12, 0)
s = 2: (0, 9, 8, 22, 18, 9, 21, 6, 11, 11, 18, 0)
s = 3: (0, 5, 13, 23, 10, 11, 12, 6, 12, 14, 11, 0)
s = 4: (0, 5, 8, 23, 15, 9, 25, 6, 13, 11, 14, 0)
s = 5: (0, 4, 10, 19, 16, 9, 11, 9, 29, 13, 13, 0)
s = 6: (0, 6, 12, 16, 11, 10, 21, 14, 17, 15, 9, 0)
s = 7: (0, 9, 15, 16, 19, 11, 20, 9, 12, 11, 13, 0)
s = 8: (0, 4, 7, 16, 12, 7, 13, 10, 12, 11, 10, 0)
s = 9: (0, 6, 7, 11, 14, 7, 18, 6, 11, 20, 14, 0)
s = 10: (0, 9, 8, 16, 18, 11, 24, 8, 11, 15, 17, 0)
s = 11: (0, 8, 6, 18, 16, 8, 26, 11, 15, 18, 11, 0)
s = 12: (0, 9, 16, 15, 27, 8, 16, 10, 11, 9, 20, 0)
s = 13: (0, 8, 9, 13, 20, 12, 14, 10, 14, 16, 19, 0)
s = 14: (0, 10, 12, 15, 14, 9, 15, 9, 18, 15, 9, 0)
s = 15: (0, 10, 9, 20, 15, 8, 22, 6, 20, 18, 12, 0)
s = 16: (0, 4, 7, 21, 27, 8, 20, 10, 17, 22, 9, 0)
s = 17: (0, 8, 9, 31, 14, 10, 15, 8, 10, 12, 14, 0)
s = 18: (0, 7, 7, 13, 14, 8, 21, 7, 12, 16, 13, 0)
s = 19: (0, 8, 9, 19, 16, 6, 11, 11, 12, 13, 7, 0)
s = 20: (0, 5, 11, 15, 23, 7, 19, 10, 20, 9, 12, 0)
s = 21: (0, 5, 7, 20, 24, 8, 21, 9, 13, 14, 13, 0)
s = 22: (0, 6, 7, 24, 18, 6, 24, 8, 23, 22, 13, 0)
s = 23: (0, 8, 12, 15, 12, 8, 15, 6, 15, 13, 8, 0)
s = 24: (0, 5, 16, 20, 12, 12, 20, 9, 19, 14, 12, 0)
s = 25: (0, 7, 9, 15, 13, 9, 19, 6, 18, 16, 10, 0)
s = 26: (0, 8, 10, 22, 14, 6, 14, 7, 12, 19, 8, 0)
s = 27: (0, 10, 10, 14, 18, 9, 13, 6, 26, 22, 18, 0)
s = 28: (0, 7, 6, 21, 18, 10, 32, 8, 16, 29, 11, 0)
s = 29: (0, 5, 9, 12, 10, 16, 29, 8, 24, 10, 7, 0)
s = 30: (0, 6, 14, 13, 16, 9, 14, 8, 20, 16, 10, 0)
s = 31: (0, 6, 13, 19, 15, 6, 18, 6, 17, 13, 12, 0)
s = 32: (0, 4, 10, 22, 12, 7, 13, 7, 12, 13, 10, 0)
s = 33: (0, 4, 7, 19, 15, 12, 13, 6, 14, 20, 9, 0)
s = 34: (0, 5, 10, 16, 18, 8, 21, 12, 21, 15, 18, 0)
s = 35: (0, 8, 9, 29, 18, 10, 18, 7, 12, 14, 8, 0)
s = 36: (0, 7, 13, 16, 16, 7, 25, 7, 21, 12, 18, 0)
s = 37: (0, 7, 10, 14, 15, 10, 17, 8, 23, 11, 10, 0)
s = 38: (0, 6, 8, 21, 10, 8, 15, 11, 18, 14, 8, 0)
s = 39: (0, 6, 7, 17, 13, 8, 15, 7, 14, 27, 11, 0)
s = 40: (0, 6, 8, 15, 22, 11, 24, 7, 18, 18, 16, 0)
s = 41: (0, 5, 7, 23, 14, 15, 29, 9, 19, 16, 10, 0)
s = 42: (0, 6, 10, 22, 10, 10, 14, 5, 15, 11, 8, 0)
s = 43: (0, 6, 12, 19, 12, 12, 19, 7, 20, 13, 8, 0)
s = 44: (0, 6, 11, 21, 13, 10, 13, 7, 13, 11, 12, 0)
s = 45: (0, 9, 7, 25, 12, 9, 20, 14, 17, 28, 12, 0)
s = 46: (0, 7, 12, 23, 10, 7, 19, 12, 16, 26, 8, 0)
s = 47: (0, 6, 6, 25, 17, 10, 25, 6, 16, 11, 15, 0)
s = 48: (0, 7, 14, 13, 14, 8, 10, 8, 20, 28, 8, 0)
s = 49: (0, 7, 11, 18, 13, 8, 15, 5, 11, 20, 16, 0)
s = 50: (0, 9, 6, 12, 15, 10, 15, 9, 18, 23, 11, 0)
s = 51: (0, 8, 10, 26, 20, 6, 16, 9, 18, 18, 11, 0)
s = 52: (0, 7, 10, 19, 12, 13, 27, 8, 15, 22, 9, 0)
s = 53: (0, 6, 9, 12, 12, 10, 13, 5, 16, 13, 13, 0)
s = 54: (0, 7, 7, 12, 12, 7, 11, 6, 10, 13, 10, 0)
s = 55: (0, 9, 12, 21, 10, 9, 18, 8, 11, 24, 7, 0)
s = 56: (0, 4, 7, 14, 25, 11, 19, 7, 17, 10, 13, 0)
s = 57: (0, 5, 10, 14, 16, 13, 18, 5, 13, 22, 13, 0)
s = 58: (0, 6, 7, 22, 10, 9, 22, 10, 16, 18, 12, 0)
s = 59: (0, 7, 12, 11, 15, 15, 27, 7, 14, 13, 17, 0)
s = 60: (0, 5, 5, 10, 15, 11, 20, 8, 14, 14, 13, 0)
s = 61: (0, 7, 6, 17, 17, 7, 23, 6, 10, 14, 18, 0)
s = 62: (0, 4, 7, 16, 18, 10, 13, 11, 10, 22, 12, 0)
s = 63: (0, 4, 11, 14, 20, 6, 27, 7, 15, 20, 8, 0)
s = 64: (0, 8, 7, 12, 12, 9, 12, 11, 13, 13, 10, 0)
s = 65: (0, 8, 8, 19, 10, 9, 13, 7, 10, 20, 13, 0)
s = 66: (0, 9, 7, 15, 10, 6, 15, 8, 15, 15, 11, 0)
s = 67: (0, 4, 7, 14, 15, 8, 25, 5, 20, 10, 9, 0)
s = 68: (0, 5, 9, 23, 10, 14, 16, 7, 13, 14, 15, 0)
s = 69: (0, 10, 7, 23, 15, 13, 18, 7, 26, 17, 14, 0)
s = 70: (0, 5, 7, 11, 22, 10, 18, 12, 15, 16, 13, 0)
s = 71: (0, 8, 11, 14, 12, 11, 14, 7, 10, 16, 7, 0)
s = 72: (0, 7, 8, 22, 12, 10, 22, 8, 14, 25, 15, 0)
s = 73: (0, 9, 10, 22, 11, 14, 18, 8, 18, 23, 9, 0)
s = 74: (0, 8, 10, 11, 17, 9, 22, 8, 20, 16, 18, 0)
s = 75: (0, 12, 16, 17, 14, 15, 18, 9, 16, 14, 17, 0)
s = 76: (0, 7, 10, 23, 15, 13, 18, 7, 17, 11, 10, 0)
s = 77: (0, 8, 7, 29, 20, 7, 18, 7, 16, 17, 17, 0)
s = 78: (0, 8, 8, 24, 13, 10, 15, 6, 16, 11, 20, 0)
s = 79: (0, 5, 13, 10, 23, 8, 19, 12, 13, 14, 11, 0)
s = 80: (0, 4, 11, 19, 11, 7, 19, 6, 11, 18, 10, 0)
s = 81: (0, 7, 14, 19, 17, 10, 23, 10, 12, 21, 10, 0)
s = 82: (0, 6, 10, 12, 27, 10, 19, 8, 14, 10, 8, 0)
s = 83: (0, 11, 14, 21, 16, 8, 14, 7, 18, 16, 18, 0)
s = 84: (0, 4, 16, 14, 11, 9, 19, 6, 15, 20, 13, 0)
s = 85: (0, 4, 6, 27, 9, 7, 19, 7, 16, 13, 13, 0)
s = 86: (0, 9, 6, 23, 20, 8, 16, 6, 9, 17, 16, 0)
s = 87: (0, 5, 9, 22, 19, 10, 26, 9, 13, 17, 11, 0)
s = 88: (0, 10, 7, 21, 13, 11, 19, 6, 13, 16, 10, 0)
s = 89: (0, 9, 8, 22, 15, 8, 21, 9, 10, 22, 7, 0)
s = 90: (0, 4, 11, 25, 26, 9, 23, 7, 14, 22, 10, 0)
s = 91: (0, 5, 12, 18, 13, 9, 15, 10, 9, 19, 12, 0)
s = 92: (0, 8, 11, 23, 14, 7, 23, 9, 16, 21, 15, 0)
s = 93: (0, 4, 11, 24, 18, 7, 26, 10, 22, 10, 12, 0)
s = 94: (0, 5, 7, 23, 14, 6, 15, 9, 14, 19, 17, 0)
s = 95: (0, 6, 11, 11, 16, 13, 12, 8, 12, 14, 8, 0)
s = 96: (0, 6, 12, 19, 22, 9, 16, 12, 10, 12, 10, 0)
s = 97: (0, 5, 12, 17, 14, 9, 22, 8, 12, 19, 9, 0)
s = 98: (0, 5, 10, 20, 11, 8, 13, 5, 14, 23, 11, 0)
s = 99: (0, 5, 12, 21, 17, 12, 15, 5, 20, 12, 8, 0)
s = 100: (0, 8, 8, 17, 12, 8, 12, 9, 11, 21, 17, 0)
s = 101: (0, 5, 10, 16, 12, 14, 17, 13, 12, 19, 10, 0)
s = 102: (0, 6, 6, 15, 16, 9, 23, 6, 17, 24, 12, 0)
s = 103: (0, 7, 11, 13, 16, 9, 19, 9, 10, 17, 14, 0)
s = 104: (0, 6, 5, 17, 12, 15, 28, 8, 20, 13, 7, 0)
s = 105: (0, 6, 11, 21, 22, 11, 14, 5, 22, 11, 12, 0)
s = 106: (0, 4, 10, 30, 17, 9, 29, 10, 21, 14, 9, 0)
s = 107: (0, 5, 9, 22, 20, 8, 30, 7, 16, 17, 10, 0)
s = 108: (0, 7, 9, 15, 30, 7, 21, 7, 19, 21, 9, 0)
s = 109: (0, 4, 8, 18, 12, 9, 19, 6, 14, 20, 19, 0)
s = 110: (0, 4, 8, 25, 16, 11, 18, 6, 17, 18, 13, 0)
s = 111: (0, 7, 12, 12, 12, 11, 22, 8, 15, 19, 13, 0)
s = 112: (0, 5, 9, 27, 19, 7, 17, 6, 16, 19, 8, 0)
s = 113: (0, 4, 11, 19, 14, 10, 25, 11, 21, 13, 15, 0)
s = 114: (0, 6, 11, 17, 20, 9, 25, 9, 15, 18, 18, 0)
s = 115: (0, 9, 11, 16, 13, 11, 25, 10, 20, 19, 15, 0)
s = 116: (0, 7, 8, 17, 26, 15, 11, 8, 16, 10, 10, 0)
s = 117: (0, 9, 6, 23, 18, 7, 21, 10, 16, 18, 13, 0)
s = 118: (0, 5, 9, 19, 15, 8, 19, 6, 20, 13, 11, 0)
s = 119: (0, 4, 8, 19, 11, 6, 15, 8, 9, 14, 17, 0)
s = 120: (0, 6, 10, 17, 19, 13, 16, 9, 13, 17, 16, 0)
s = 121: (0, 8, 9, 22, 20, 13, 19, 8, 9, 19, 9, 0)
s = 122: (0, 11, 10, 15, 11, 9, 18, 10, 21, 14, 14, 0)
s = 123: (0, 4, 9, 19, 29, 11, 20, 12, 18, 18, 14, 0)
s = 124: (0, 6, 7, 29, 19, 8, 14, 8, 19, 14, 14, 0)
s = 125: (0, 8, 9, 20, 19, 11, 12, 8, 15, 12, 8, 0)
s = 126: (0, 6, 11, 24, 17, 10, 12, 7, 18, 14, 11, 0)
s = 127: (0, 6, 10, 21, 13, 8, 22, 7, 13, 27, 15, 0)
s = 128: (0, 5, 6, 20, 17, 11, 22, 9, 18, 17, 20, 0)
s = 129: (0, 8, 11, 23, 17, 6, 23, 10, 11, 12, 10, 0)
s = 130: (0, 9, 10, 15, 13, 6, 19, 6, 12, 23, 11, 0)
s = 131: (0, 4, 9, 20, 18, 6, 17, 8, 22, 12, 13, 0)
s = 132: (0, 5, 11, 16, 11, 6, 12, 6, 16, 18, 12, 0)
s = 133: (0, 6, 7, 20, 23, 13, 25, 7, 12, 25, 14, 0)
s = 134: (0, 6, 13, 21, 13, 11, 17, 6, 16, 15, 9, 0)
s = 135: (0, 8, 7, 18, 21, 9, 13, 8, 12, 13, 9, 0)
s = 136: (0, 8, 10, 11, 19, 7, 14, 5, 19, 11, 12, 0)
s = 137: (0, 6, 6, 23, 21, 8, 22, 8, 16, 11, 16, 0)
s = 138: (0, 8, 6, 22, 11, 10, 24, 5, 9, 11, 16, 0)
s = 139: (0, 10, 10, 14, 12, 6, 14, 13, 15, 11, 8, 0)
s = 140: (0, 5, 18, 23, 18, 8, 20, 8, 12, 22, 10, 0)
s = 141: (0, 7, 11, 21, 11, 7, 25, 11, 16, 15, 15, 0)
s = 142: (0, 8, 9, 13, 15, 8, 18, 7, 19, 21, 15, 0)
s = 143: (0, 6, 11, 15, 10, 8, 34, 10, 17, 14, 7, 0)
s = 144: (0, 6, 10, 25, 16, 9, 24, 6, 14, 13, 13, 0)
s = 145: (0, 7, 8, 18, 20, 13, 20, 10, 13, 21, 11, 0)
s = 146: (0, 11, 10, 21, 22, 9, 19, 7, 17, 16, 13, 0)
s = 147: (0, 6, 7, 22, 17, 6, 14, 7, 17, 15, 8, 0)
s = 148: (0, 5, 10, 28, 16, 6, 21, 7, 27, 20, 14, 0)
s = 149: (0, 9, 15, 26, 16, 15, 14, 10, 16, 22, 11, 0)
s = 150: (0, 7, 9, 16, 19, 7, 17, 9, 14, 21, 9, 0)
s = 151: (0, 7, 8, 22, 19, 6, 13, 8, 12, 12, 17, 0)
s = 152: (0, 4, 9, 16, 15, 13, 23, 6, 11, 17, 7, 0)
s = 153: (0, 8, 11, 16, 12, 6, 20, 9, 13, 12, 17, 0)
s = 154: (0, 5, 10, 20, 22, 9, 19, 13, 20, 26, 16, 0)
s = 155: (0, 5, 7, 21, 16, 8, 19, 8, 22, 15, 11, 0)
s = 156: (0, 7, 9, 18, 10, 13, 16, 7, 12, 15, 12, 0)
s = 157: (0, 4, 9, 19, 13, 13, 22, 9, 15, 22, 18, 0)
s = 158: (0, 9, 7, 20, 16, 7, 11, 7, 21, 14, 8, 0)
s = 159: (0, 5, 10, 19, 11, 7, 16, 9, 9, 24, 11, 0)
s = 160: (0, 5, 9, 19, 14, 10, 13, 8, 20, 11, 15, 0)
s = 161: (0, 7, 9, 21, 15, 6, 15, 10, 24, 16, 13, 0)
s = 162: (0, 5, 7, 17, 11, 13, 13, 10, 16, 12, 8, 0)
s = 163: (0, 7, 15, 14, 24, 6, 20, 8, 13, 17, 13, 0)
s = 164: (0, 8, 8, 19, 14, 7, 18, 6, 14, 16, 9, 0)
s = 165: (0, 6, 18, 18, 11, 12, 14, 11, 18, 15, 10, 0)
s = 166: (0, 7, 6, 16, 15, 9, 18, 8, 27, 10, 13, 0)
s = 167: (0, 6, 17, 15, 21, 8, 25, 6, 13, 20, 15, 0)
s = 168: (0, 8, 8, 17, 12, 8, 16, 11, 17, 10, 21, 0)
s = 169: (0, 5, 11, 19, 15, 9, 25, 11, 17, 13, 12, 0)
s = 170: (0, 8, 9, 17, 15, 11, 16, 6, 26, 15, 16, 0)
s = 171: (0, 8, 8, 12, 10, 15, 18, 8, 12, 12, 12, 0)
s = 172: (0, 6, 12, 11, 12, 8, 18, 8, 13, 20, 13, 0)
s = 173: (0, 9, 13, 23, 17, 15, 17, 12, 24, 20, 19, 0)
s = 174: (0, 5, 12, 18, 14, 10, 19, 6, 12, 9, 8, 0)
s = 175: (0, 5, 10, 10, 16, 10, 20, 8, 13, 12, 7, 0)
s = 176: (0, 6, 11, 17, 12, 15, 23, 8, 14, 19, 12, 0)
s = 177: (0, 4, 13, 13, 19, 11, 20, 8, 11, 11, 13, 0)
s = 178: (0, 5, 12, 14, 23, 8, 17, 8, 10, 11, 10, 0)
s = 179: (0, 8, 11, 21, 15, 10, 14, 10, 17, 10, 9, 0)
s = 180: (0, 5, 12, 18, 29, 12, 25, 7, 11, 15, 7, 0)
s = 181: (0, 8, 12, 20, 16, 8, 19, 7, 17, 10, 15, 0)
s = 182: (0, 9, 8, 15, 19, 7, 21, 11, 16, 13, 15, 0)
s = 183: (0, 6, 7, 19, 12, 11, 15, 6, 22, 24, 12, 0)
s = 184: (0, 9, 12, 24, 26, 14, 25, 9, 15, 18, 7, 0)
s = 185: (0, 5, 7, 11, 18, 9, 29, 7, 8, 14, 11, 0)
s = 186: (0, 5, 14, 14, 10, 14, 23, 7, 13, 21, 12, 0)
s = 187: (0, 6, 11, 17, 22, 10, 21, 8, 26, 18, 10, 0)
s = 188: (0, 6, 10, 13, 16, 6, 29, 12, 12, 13, 17, 0)
s = 189: (0, 6, 8, 16, 15, 10, 26, 7, 14, 13, 13, 0)
s = 190: (0, 5, 12, 13, 23, 10, 17, 6, 19, 15, 11, 0)
s = 191: (0, 6, 11, 20, 9, 10, 19, 15, 18, 17, 14, 0)
s = 192: (0, 6, 6, 15, 12, 8, 24, 9, 16, 9, 10, 0)
s = 193: (0, 6, 10, 15, 25, 16, 19, 8, 20, 19, 7, 0)
s = 194: (0, 4, 8, 21, 11, 7, 13, 9, 12, 27, 14, 0)
s = 195: (0, 5, 9, 13, 10, 10, 22, 9, 13, 17, 14, 0)
s = 196: (0, 10, 10, 13, 17, 9, 13, 7, 12, 11, 11, 0)
s = 197: (0, 8, 11, 15, 24, 7, 16, 7, 22, 17, 10, 0)
s = 198: (0, 9, 8, 16, 19, 8, 21, 11, 12, 21, 15, 0)
s = 199: (0, 4, 13, 23, 24, 8, 17, 9, 23, 18, 15, 0)
s = 200: (0, 5, 7, 21, 22, 10, 24, 8, 13, 21, 10, 0)
************************************************************************
ES/LS-VALUES:
jobnr.   ES(i)    LS(i)
------------------------------------------------------------------------
  0        0        0
  1        0       59
  2        0       51
  3        0       66
  4        2       53
  5        2       64
  6        4       66
  7        9       61
  8        9       72
  9       11       63
 10        9       72
 11       25       78
************************************************************************
BIG-M-VALUES:
M1 = 58, M2 = 118
************************************************************************
